(set-logic HORN)
(declare-fun state (Int (Array Int Int) (Array Int Int) (Array Int Int) (Array Int Int) Int Int (Array Int Int) (Array Int Int) Int Int Int Int Int Int Int Int Int Int Int Int Int Int Int Int Int Int Int Int Int Int Int Int Int Int Int Int Int Int Int Int Bool Bool Bool Bool Bool (Array Int Int) Int) Bool)
(assert (forall ((|A_26| Int) (|B_26| (Array Int Int)) (|C_26| (Array Int Int)) (|D_26| (Array Int Int)) (|E_26| (Array Int Int)) (|F_26| Int) (|G_26| Int) (|H_26| (Array Int Int)) (|I_26| (Array Int Int)) (|J_26| Int) (|K_26| Int) (|L_26| Int) (|M_26| Int) (|N_26| Int) (|O_26| Int) (|P_26| Int) (|Q1_16| Int) (|R_26| Int) (|S_26| Int) (|T_26| Int) (|U_26| Int) (|V_26| Int) (|W_26| Int) (|X_26| Int) (|Y_26| Int) (|Z_26| Int) (|A1_26| Int) (|B1_26| Int) (|C1_26| Int) (|D1_26| Int) (|E1_26| Int) (|F1_26| Int) (|G1_26| Int) (|H1_26| Int) (|I1_26| Int) (|J1_26| Int) (|K1_26| Int) (|L1_26| Int) (|M1_26| Int) (|N1_26| Int) (|O1_26| Int) (|P1_26| Bool) (|.loc.5| Bool) (|.loc.6| Bool) (|.loc.7| Bool) (|.loc.8| Bool) (|Q1_0| (Array Int Int)) (|T1_1| Int) (|.x.1254| Int) (|.x.1256| (Array Int Int)) (|.x.1258| (Array Int Int)) (|.x.1260| Int) (|.x.1264| Int) (|.x.1262| (Array Int Int)) (|.x.1266| Int) (|.x.1282| Int) (|.x.1267| Int) (|.x.1274| Int) (|.x.1281| Int) (|.x.1279| Int) (|.x.1270| Int) (|.x.1289| Int) (|P1_31| Bool) (|.x.1286| Int) (|.x.1276| Int) (|.x.1265| Int) (|.x.1255| (Array Int Int)) (|.x.1288| Int) (|.loc.9| Bool) (|.loc.11| Bool) (|.loc.10| Bool) (|.x.1280| Int) (|.x.1284| Int) (|.x.1275| Int) (|.x.1269| Int) (|.x.1273| Int) (|.x.1292| Int) (|.x.1290| Int) (|.x.1272| Int) (|.x.1271| Int) (|.x.1257| (Array Int Int)) (|.x.1278| Int) (|.x.1283| Int) (|.x.1277| Int) (|.loc.12| Bool) (|.x.1285| Int) (|.x.1291| Int) (|.x.1268| Int) (|.x.1287| Int) (|.x.1294| Int) (|.x.1293| Int) (|.x.1259| Int) (|.x.1263| Int) (|.x.1261| (Array Int Int)) (|.xtv.1| (Array Int Int)) (|.xtv.2| Int)) (=> (and (and (and (and (not .loc.6) (not .loc.5)) (not .loc.7)) (not .loc.8)) (and (and (and (and (and (= D_26 E_26) (not P1_26)) (= F_26 G_26)) (= J_26 K_26)) (= H_26 I_26)) (= B_26 C_26))) (state |A_26| |B_26| |C_26| |D_26| |E_26| |F_26| |G_26| |H_26| |I_26| |J_26| |K_26| |L_26| |M_26| |N_26| |O_26| |P_26| |Q1_16| |R_26| |S_26| |T_26| |U_26| |V_26| |W_26| |X_26| |Y_26| |Z_26| |A1_26| |B1_26| |C1_26| |D1_26| |E1_26| |F1_26| |G1_26| |H1_26| |I1_26| |J1_26| |K1_26| |L1_26| |M1_26| |N1_26| |O1_26| |P1_26| |.loc.5| |.loc.6| |.loc.7| |.loc.8| |Q1_0| |T1_1|))))
(assert (forall ((|A_26| Int) (|B_26| (Array Int Int)) (|C_26| (Array Int Int)) (|D_26| (Array Int Int)) (|E_26| (Array Int Int)) (|F_26| Int) (|G_26| Int) (|H_26| (Array Int Int)) (|I_26| (Array Int Int)) (|J_26| Int) (|K_26| Int) (|L_26| Int) (|M_26| Int) (|N_26| Int) (|O_26| Int) (|P_26| Int) (|Q1_16| Int) (|R_26| Int) (|S_26| Int) (|T_26| Int) (|U_26| Int) (|V_26| Int) (|W_26| Int) (|X_26| Int) (|Y_26| Int) (|Z_26| Int) (|A1_26| Int) (|B1_26| Int) (|C1_26| Int) (|D1_26| Int) (|E1_26| Int) (|F1_26| Int) (|G1_26| Int) (|H1_26| Int) (|I1_26| Int) (|J1_26| Int) (|K1_26| Int) (|L1_26| Int) (|M1_26| Int) (|N1_26| Int) (|O1_26| Int) (|P1_26| Bool) (|.loc.5| Bool) (|.loc.6| Bool) (|.loc.7| Bool) (|.loc.8| Bool) (|Q1_0| (Array Int Int)) (|T1_1| Int) (|.x.1254| Int) (|.x.1256| (Array Int Int)) (|.x.1258| (Array Int Int)) (|.x.1260| Int) (|.x.1264| Int) (|.x.1262| (Array Int Int)) (|.x.1266| Int) (|.x.1282| Int) (|.x.1267| Int) (|.x.1274| Int) (|.x.1281| Int) (|.x.1279| Int) (|.x.1270| Int) (|.x.1289| Int) (|P1_31| Bool) (|.x.1286| Int) (|.x.1276| Int) (|.x.1265| Int) (|.x.1255| (Array Int Int)) (|.x.1288| Int) (|.loc.9| Bool) (|.loc.11| Bool) (|.loc.10| Bool) (|.x.1280| Int) (|.x.1284| Int) (|.x.1275| Int) (|.x.1269| Int) (|.x.1273| Int) (|.x.1292| Int) (|.x.1290| Int) (|.x.1272| Int) (|.x.1271| Int) (|.x.1257| (Array Int Int)) (|.x.1278| Int) (|.x.1283| Int) (|.x.1277| Int) (|.loc.12| Bool) (|.x.1285| Int) (|.x.1291| Int) (|.x.1268| Int) (|.x.1287| Int) (|.x.1294| Int) (|.x.1293| Int) (|.x.1259| Int) (|.x.1263| Int) (|.x.1261| (Array Int Int)) (|.xtv.1| (Array Int Int)) (|.xtv.2| Int)) (=> (and (state |A_26| |B_26| |C_26| |D_26| |E_26| |F_26| |G_26| |H_26| |I_26| |J_26| |K_26| |L_26| |M_26| |N_26| |O_26| |P_26| |Q1_16| |R_26| |S_26| |T_26| |U_26| |V_26| |W_26| |X_26| |Y_26| |Z_26| |A1_26| |B1_26| |C1_26| |D1_26| |E1_26| |F1_26| |G1_26| |H1_26| |I1_26| |J1_26| |K1_26| |L1_26| |M1_26| |N1_26| |O1_26| |P1_26| |.loc.5| |.loc.6| |.loc.7| |.loc.8| |Q1_0| |T1_1|) (let ((.def_58 (not .loc.6))) (let ((.def_59 (not .loc.5))) (let ((.def_61 (not .loc.7))) (let ((.def_63 (not .loc.8))) (let ((.def_104 (= .x.1274 .x.1281))) (let ((.def_107 (= .x.1281 .x.1279))) (let ((.def_119 (and (and (<= (- 2147483648) .x.1274) (<= .x.1274 2147483647)) (= .x.1274 .x.1270)))) (let ((.def_122 (= J1_26 .x.1289))) (let ((.def_126 (= G1_26 .x.1286))) (let ((.def_129 (= W_26 .x.1276))) (let ((.def_132 (= L_26 .x.1265))) (let ((.def_135 (= B_26 .x.1255))) (let ((.def_147 (ite (<= (+ E1_26 (* (- 4294967296) (to_int (* (/ 1 4294967296) (to_real E1_26))))) 2147483647) (+ E1_26 (* (- 4294967296) (to_int (* (/ 1 4294967296) (to_real E1_26))))) (+ (- 4294967296) (+ E1_26 (* (- 4294967296) (to_int (* (/ 1 4294967296) (to_real E1_26))))))))) (let ((.def_149 (or P1_26 (= .x.1270 .def_147)))) (let ((.def_163 (= P1_26 P1_31))) (let ((.def_166 (= I1_26 .x.1288))) (let ((.def_168 (= U_26 .x.1274))) (let ((.def_170 (= Q1_16 .x.1270))) (let ((.def_175 (not .loc.9))) (let ((.def_179 (not .loc.10))) (let ((.def_188 (and .def_135 (and .def_132 (and .def_129 (and .def_122 .def_126)))))) (let ((.def_194 (not .loc.11))) (let ((.def_227 (and .loc.5 .def_188))) (let ((.def_237 (<= 1000 A1_26))) (let ((.def_238 (or P1_26 .def_237))) (let ((.def_242 (= A1_26 .x.1280))) (let ((.def_244 (= E1_26 .x.1284))) (let ((.def_247 (= V_26 .x.1275))) (let ((.def_250 (= P_26 .x.1269))) (let ((.def_265 (or P1_31 (= (+ A1_26 (* (- 1) .x.1280)) (- 1))))) (let ((.def_268 (or P1_26 (not .def_237)))) (let ((.def_272 (= T_26 .x.1273))) (let ((.def_274 (= M1_26 .x.1292))) (let ((.def_276 (= K1_26 .x.1290))) (let ((.def_277 (and .def_274 .def_276))) (let ((.def_280 (= S_26 .x.1272))) (let ((.def_283 (= R_26 .x.1271))) (let ((.def_286 (= D_26 .x.1257))) (let ((.def_291 (select D_26 L_26))) (let ((.def_295 (= .x.1292 .x.1290))) (let ((.def_296 (= L_26 .x.1292))) (let ((.def_298 (= .x.1280 1))) (let ((.def_300 (= G1_26 .x.1273))) (let ((.def_302 (= .x.1273 .x.1272))) (let ((.def_306 (= .x.1284 (select (select .x.1257 .x.1290) .x.1272)))) (let ((.def_322 (and P1_26 .def_274))) (let ((.def_350 (<= 999 D1_26))) (let ((.def_355 (and .def_242 (and .def_244 (and .def_126 (and .def_122 .def_277)))))) (let ((.def_362 (and .def_132 (and .def_250 (and .def_283 (and .def_280 (and .def_272 (and .def_247 (and .def_129 .def_355))))))))) (let ((.def_379 (= Y_26 .x.1278))) (let ((.def_381 (= D1_26 .x.1283))) (let ((.def_384 (= X_26 .x.1277))) (let ((.def_418 (not .loc.12))) (let ((.def_424 (= F1_26 .x.1285))) (let ((.def_426 (= L1_26 .x.1291))) (let ((.def_428 (= Z_26 .x.1279))) (let ((.def_431 (= O_26 .x.1268))) (let ((.def_509 (and .def_424 (and .def_126 (and .def_122 (and .def_276 (and .def_274 .def_426))))))) (let ((.def_568 (= H1_26 .x.1287))) (let ((.def_570 (= O1_26 .x.1294))) (let ((.def_572 (= N1_26 .x.1293))) (let ((.def_573 (and .def_570 .def_572))) (let ((.def_575 (= B1_26 .x.1281))) (let ((.def_593 (select D_26 .x.1265))) (let ((.def_655 (and .loc.5 (and .def_135 (and .def_286 (and .def_132 (and .def_431 (and .def_250 (and .def_283 (and .def_280 (and .def_272 (and .def_247 (and .def_129 (and .def_384 (and .def_379 (and .def_428 (and .def_242 (and .def_575 (and .def_381 (and .def_244 (and .def_424 (and .def_126 (and .def_568 (and .def_122 (and .def_276 (and .def_426 (and .def_274 (and .def_572 (and P1_26 .def_570))))))))))))))))))))))))))))) (let ((.def_674 (and .def_424 (and .def_126 (and .def_568 (and .def_122 (and .def_276 (and .def_426 (and .def_274 .def_573))))))))) (let ((.def_689 (and .def_132 (and .def_431 (and .def_250 (and .def_283 (and .def_280 (and .def_272 (and .def_247 (and .def_129 (and .def_384 (and .def_379 (and .def_428 (and .def_242 (and .def_575 (and .def_381 (and .def_244 .def_674))))))))))))))))) (let ((.def_692 (and .loc.5 (and .def_135 (and .def_286 .def_689))))) (let ((.def_783 (<= 1000 C1_26))) (and (and (= A_26 .x.1254) (and (= C_26 .x.1256) (and (= E_26 .x.1258) (and (= G_26 .x.1260) (and (= K_26 .x.1264) (= I_26 .x.1262)))))) (or (and (or (and (and (= M_26 .x.1266) (and (= C1_26 .x.1282) (= N_26 .x.1267))) (or (or (or (or (or (or (or (and (or (or (or (or (and (or (and (or (or (and (or (and (or (and (or (or (and .loc.6 (or (or (and (or (and .def_59 (and (or (not .def_104) (or P1_26 (not .def_107))) (and (or P1_26 .def_119) (and (and (and (and (and (and .def_122 P1_31) .def_126) .def_129) .def_132) .def_135) .def_149)))) (and (or P1_26 (and (= .x.1289 1) (= .x.1255 (store B_26 L_26 0)))) (and (and (and (and (and .loc.5 (or P1_31 (= .x.1289 .x.1276))) .def_163) .def_166) .def_168) .def_170))) (and (and .def_175 .loc.11) .def_179)) (and (or .def_119 P1_31) (and (or P1_31 (and .def_104 .def_107)) (and (and .def_163 (and .loc.10 (and .loc.9 (and .def_59 (and .def_149 .def_188))))) .def_194)))) (and .def_194 (and .loc.10 (and .loc.9 (and .def_59 (and .def_149 (and .def_135 (and .def_132 (and .def_129 (and .def_126 (and .def_122 (and P1_26 P1_31))))))))))))) (and .def_58 (and .def_194 (and .def_170 (and .def_168 (and .def_166 (and .def_163 (and .def_175 (and .loc.10 (and .loc.5 (and .def_135 (and .def_132 (and .def_129 (and .def_126 (and P1_26 .def_122))))))))))))))) (and (and .def_58 (and .def_194 (and .def_170 (and .def_168 (and .def_166 (and .def_163 (and .def_175 (and .loc.10 .def_227)))))))) .def_238)) (and (and (and .def_242 .def_244) .def_247) .def_250)) (and (and (and .def_58 (and .def_194 (and .def_170 (and .def_168 (and .def_166 (and .def_163 (and .def_179 (and .loc.9 .def_227)))))))) .def_265) .def_268)) (and (and (and (and .def_272 .def_277) .def_280) .def_283) .def_286)) (and (or P1_26 (and (= .x.1257 (store D_26 L_26 (store .def_291 (+ G1_26 3996) O_26))) (and (and (and (and (and .def_295 .def_296) .def_298) .def_300) .def_302) .def_306))) (and .def_58 (and .def_194 (and .def_168 (and .def_166 (and .def_163 (and .def_179 (and .loc.9 (and .def_59 .def_188)))))))))) (and .loc.8 .def_61)) (and .def_63 (and .def_194 (and .def_170 (and .def_168 (and .def_166 (and .def_163 (and .def_179 (and .def_175 (and .loc.7 (and .loc.6 (and .loc.5 (and .def_135 (and .def_286 (and .def_132 (and .def_250 (and .def_283 (and .def_280 (and .def_272 (and .def_247 (and .def_129 (and .def_242 (and .def_244 (and .def_126 (and .def_122 (and .def_276 .def_322)))))))))))))))))))))))))) (and (or P1_26 .def_350) (and .def_63 (and .def_194 (and .def_170 (and .def_168 (and .def_166 (and .def_163 (and .def_179 (and .def_175 (and .loc.7 (and .loc.6 (and .loc.5 (and .def_135 (and .def_286 .def_362))))))))))))))) (and (and (and .def_379 .def_381) .def_384) .loc.12)) (and (or P1_26 (and (= .x.1257 (store D_26 L_26 (store .def_291 (+ (* 4 D1_26) G1_26) (select .def_291 (+ (+ (* 4 D1_26) G1_26) 4))))) (not .def_350))) (and (or P1_31 (= (+ D1_26 (* (- 1) .x.1283)) (- 1))) (and (and .def_63 (and .def_170 (and .def_168 (and .def_166 (and .def_163 (and .loc.11 (and .loc.10 (and .loc.9 (and .loc.7 (and .loc.6 (and .loc.5 (and .def_135 .def_362)))))))))))) .def_418)))) (and (and (and .def_424 .def_426) .def_428) .def_431)) (and (or P1_31 (and (and (and (and (<= (- 2147483648) .x.1270) (<= .x.1270 2147483647)) (= .x.1268 (select (select .x.1257 .x.1265) .x.1286))) (= .x.1283 0)) (= .x.1279 .x.1270))) (and .def_418 (and .def_63 (and .def_168 (and .def_166 (and .def_163 (and .loc.11 (and .loc.10 (and .loc.9 (and .def_59 (and .loc.7 (and .loc.6 (and .def_149 (and .def_135 (and .def_286 (and .def_132 (and .def_250 (and .def_283 (and .def_280 (and .def_272 (and .def_247 (and .def_129 (and .def_384 (and .def_355 .def_379))))))))))))))))))))))))) (and .def_418 (and .def_63 (and .def_58 (and .def_170 (and .def_168 (and .def_166 (and .def_163 (and .def_175 (and .loc.11 (and .loc.10 (and .loc.7 (and .loc.5 (and .def_135 (and .def_286 (and .def_132 (and .def_431 (and .def_250 (and .def_283 (and .def_280 (and .def_272 (and .def_247 (and .def_129 (and .def_384 (and .def_379 (and .def_428 (and .def_242 (and .def_381 (and .def_244 (and .def_424 (and .def_126 (and .def_122 (and .def_276 (and .def_322 .def_426)))))))))))))))))))))))))))))))))) (and .def_418 (and .def_63 (and .def_238 (and .def_58 (and .def_170 (and .def_168 (and .def_166 (and .def_163 (and .def_175 (and .loc.11 (and .loc.10 (and .loc.7 (and .loc.5 (and .def_135 (and .def_286 (and .def_132 (and .def_431 (and .def_250 (and .def_283 (and .def_280 (and .def_272 (and .def_247 (and .def_129 (and .def_384 (and .def_379 (and .def_428 (and .def_242 (and .def_381 (and .def_244 .def_509)))))))))))))))))))))))))))))) (and .def_418 (and .def_63 (and .def_268 (and .def_265 (and .def_58 (and .def_170 (and .def_168 (and .def_166 (and .def_163 (and .def_179 (and .loc.11 (and .loc.9 (and .loc.7 (and .loc.5 (and .def_135 (and .def_286 (and .def_132 (and .def_431 (and .def_283 (and .def_280 (and .def_272 (and .def_129 (and .def_384 (and .def_379 (and .def_428 (and .def_381 .def_509))))))))))))))))))))))))))) (and (and .def_568 .def_573) .def_575)) (and (or P1_26 (= T1_1 .def_147)) (and (or P1_31 (and (and (and .def_302 (and (and .def_306 (and .def_295 (and .def_298 (and (and (= .x.1265 .x.1292) (and (<= .x.1281 2147483647) (<= (- 2147483648) .x.1281))) (= T1_1 .x.1281))))) (= .x.1286 .x.1273))) (= .x.1268 (select .def_593 .x.1286))) (= .x.1257 (store D_26 .x.1265 (store (store .def_593 .x.1286 (select .def_593 (+ .x.1286 4))) (+ .x.1286 4) .x.1268))))) (and .def_418 (and .def_63 (and .def_58 (and .def_168 (and .def_166 (and .def_163 (and .def_179 (and .loc.11 (and .loc.9 (and .def_59 (and .loc.7 (and .def_135 (and .def_132 (and .def_129 (and .def_384 (and .def_379 (and .def_428 (and .def_381 (and .def_424 (and .def_126 (and .def_122 .def_426)))))))))))))))))))))))) (and .def_418 (and .def_63 (and .def_170 (and .def_168 (and .def_166 (and .def_163 (and .def_179 (and .def_175 (and .loc.11 (and .def_61 (and .loc.6 .def_655)))))))))))) (and .def_418 (and .def_63 (and .def_238 (and .def_170 (and .def_168 (and .def_166 (and .def_163 (and .def_179 (and .def_175 (and .loc.11 (and .def_61 (and .loc.6 .def_692))))))))))))) (and .def_418 (and .def_63 (and .def_268 (and .def_265 (and .def_194 (and .def_170 (and .def_168 (and .def_166 (and .def_163 (and .loc.10 (and .loc.9 (and .def_61 (and .loc.6 (and .loc.5 (and .def_135 (and .def_286 (and .def_132 (and .def_431 (and .def_283 (and .def_280 (and .def_272 (and .def_129 (and .def_384 (and .def_379 (and .def_428 (and .def_575 (and .def_381 .def_674)))))))))))))))))))))))))))) (and (or P1_26 (and .def_302 (and .def_298 (and (= .x.1284 (select (select D_26 .x.1290) .x.1272)) (and .def_295 (and .def_296 .def_300)))))) (and .def_418 (and .def_63 (and .def_194 (and .def_168 (and .def_166 (and .def_163 (and .loc.10 (and .loc.9 (and .def_61 (and .def_59 (and .loc.6 (and .def_135 (and .def_286 (and .def_132 (and .def_431 (and .def_129 (and .def_384 (and .def_379 (and .def_428 (and .def_575 (and .def_381 (and .def_424 (and .def_126 (and .def_568 (and .def_122 (and .def_426 .def_573)))))))))))))))))))))))))))) (and .def_418 (and .def_63 (and .def_58 (and .def_194 (and .def_170 (and .def_168 (and .def_166 (and .def_163 (and .def_175 (and .loc.10 (and .def_61 .def_655)))))))))))) (and (or P1_26 .def_783) (and .def_418 (and .def_63 (and .def_58 (and .def_194 (and .def_170 (and .def_168 (and .def_166 (and .def_163 (and .def_175 (and .loc.10 (and .def_61 .def_692)))))))))))))) (and (or P1_26 (and (= .x.1257 (store D_26 L_26 (store .def_291 (+ (* 4 C1_26) G1_26) M_26))) (and (<= (- 2147483648) M_26) (and (<= M_26 2147483647) (not .def_783))))) (and (or P1_31 (= (+ C1_26 (* (- 1) .x.1282)) (- 1))) (and .def_418 (and .def_63 (and .def_58 (and .def_194 (and .def_170 (and .def_168 (and .def_166 (and .def_163 (and .def_179 (and .loc.9 (and .def_61 (and .loc.5 (and .def_135 .def_689)))))))))))))))) (and (= F_26 .x.1259) (and (= J_26 .x.1263) (= H_26 .x.1261)))) (and (or P1_26 (and (and (= .x.1263 0) (= .x.1259 0)) (= Q1_0 (store B_26 0 0)))) (and (or P1_31 (and (and (and (and (and (and (not (<= .x.1254 .x.1265)) (not (= .x.1265 0))) (= .x.1282 0)) (= .x.1286 0)) (= (select Q1_0 .x.1265) 0)) (= .x.1261 (store H_26 .x.1265 4000))) (= .x.1255 (store Q1_0 .x.1265 1)))) (and .def_418 (and .def_63 (and .def_58 (and .def_194 (and .def_170 (and .def_163 (and .def_179 (and .loc.9 (and .def_61 (and .def_59 (and .def_286 (and .def_250 (and .def_283 (and .def_280 (and .def_272 (and .def_247 (and .def_129 (and .def_242 (and .def_244 .def_277))))))))))))))))))))))))))))))))))))))))))))))))))))))))))))))))))))))))))))))))))))))))))))) (state |.x.1254| |.x.1255| |.x.1256| |.x.1257| |.x.1258| |.x.1259| |.x.1260| |.x.1261| |.x.1262| |.x.1263| |.x.1264| |.x.1265| |.x.1266| |.x.1267| |.x.1268| |.x.1269| |.x.1270| |.x.1271| |.x.1272| |.x.1273| |.x.1274| |.x.1275| |.x.1276| |.x.1277| |.x.1278| |.x.1279| |.x.1280| |.x.1281| |.x.1282| |.x.1283| |.x.1284| |.x.1285| |.x.1286| |.x.1287| |.x.1288| |.x.1289| |.x.1290| |.x.1291| |.x.1292| |.x.1293| |.x.1294| |P1_31| |.loc.9| |.loc.10| |.loc.11| |.loc.12| |.xtv.1| |.xtv.2|))))
(assert (forall ((|A_26| Int) (|B_26| (Array Int Int)) (|C_26| (Array Int Int)) (|D_26| (Array Int Int)) (|E_26| (Array Int Int)) (|F_26| Int) (|G_26| Int) (|H_26| (Array Int Int)) (|I_26| (Array Int Int)) (|J_26| Int) (|K_26| Int) (|L_26| Int) (|M_26| Int) (|N_26| Int) (|O_26| Int) (|P_26| Int) (|Q1_16| Int) (|R_26| Int) (|S_26| Int) (|T_26| Int) (|U_26| Int) (|V_26| Int) (|W_26| Int) (|X_26| Int) (|Y_26| Int) (|Z_26| Int) (|A1_26| Int) (|B1_26| Int) (|C1_26| Int) (|D1_26| Int) (|E1_26| Int) (|F1_26| Int) (|G1_26| Int) (|H1_26| Int) (|I1_26| Int) (|J1_26| Int) (|K1_26| Int) (|L1_26| Int) (|M1_26| Int) (|N1_26| Int) (|O1_26| Int) (|P1_26| Bool) (|.loc.5| Bool) (|.loc.6| Bool) (|.loc.7| Bool) (|.loc.8| Bool) (|Q1_0| (Array Int Int)) (|T1_1| Int) (|.x.1254| Int) (|.x.1256| (Array Int Int)) (|.x.1258| (Array Int Int)) (|.x.1260| Int) (|.x.1264| Int) (|.x.1262| (Array Int Int)) (|.x.1266| Int) (|.x.1282| Int) (|.x.1267| Int) (|.x.1274| Int) (|.x.1281| Int) (|.x.1279| Int) (|.x.1270| Int) (|.x.1289| Int) (|P1_31| Bool) (|.x.1286| Int) (|.x.1276| Int) (|.x.1265| Int) (|.x.1255| (Array Int Int)) (|.x.1288| Int) (|.loc.9| Bool) (|.loc.11| Bool) (|.loc.10| Bool) (|.x.1280| Int) (|.x.1284| Int) (|.x.1275| Int) (|.x.1269| Int) (|.x.1273| Int) (|.x.1292| Int) (|.x.1290| Int) (|.x.1272| Int) (|.x.1271| Int) (|.x.1257| (Array Int Int)) (|.x.1278| Int) (|.x.1283| Int) (|.x.1277| Int) (|.loc.12| Bool) (|.x.1285| Int) (|.x.1291| Int) (|.x.1268| Int) (|.x.1287| Int) (|.x.1294| Int) (|.x.1293| Int) (|.x.1259| Int) (|.x.1263| Int) (|.x.1261| (Array Int Int)) (|.xtv.1| (Array Int Int)) (|.xtv.2| Int)) (=> (state |A_26| |B_26| |C_26| |D_26| |E_26| |F_26| |G_26| |H_26| |I_26| |J_26| |K_26| |L_26| |M_26| |N_26| |O_26| |P_26| |Q1_16| |R_26| |S_26| |T_26| |U_26| |V_26| |W_26| |X_26| |Y_26| |Z_26| |A1_26| |B1_26| |C1_26| |D1_26| |E1_26| |F1_26| |G1_26| |H1_26| |I1_26| |J1_26| |K1_26| |L1_26| |M1_26| |N1_26| |O1_26| |P1_26| |.loc.5| |.loc.6| |.loc.7| |.loc.8| |Q1_0| |T1_1|) (not (and P1_26 (and .loc.8 (and .loc.7 (and (not .loc.6) (not .loc.5)))))))))
(check-sat)
